53079
23, 21, 29, 22, 10, 16, 39, 46, 36, 15, 52, 45, 11, 25, 31, 27, 1, 33, 42, 2, 14, 9, 12, 18, 4, 30, 47, 54, 34, 53, 17, 48, 19, 44, 38, 8, 32, 41, 5, 35, 24, 50, 20, 37, 7, 40, 51, 13, 43, 3, 6, 28, 55, 26, 49
